(set-logic QF_UF)
(declare-fun A0 () Bool)
(declare-fun A1 () Bool)
(declare-fun A2 () Bool)
(declare-fun A3 () Bool)
(declare-fun A4 () Bool)
(declare-fun A5 () Bool)
(declare-fun A6 () Bool)
(declare-fun A7 () Bool)
(declare-fun A8 () Bool)
(declare-fun A9 () Bool)
(declare-fun A10 () Bool)
(declare-fun A11 () Bool)
(declare-fun A12 () Bool)
(declare-fun A13 () Bool)
(declare-fun A14 () Bool)
(declare-fun A15 () Bool)
(declare-fun A16 () Bool)
(declare-fun A17 () Bool)
(declare-fun A18 () Bool)
(declare-fun A19 () Bool)
(declare-fun A20 () Bool)
(declare-fun A21 () Bool)
(declare-fun A22 () Bool)
(declare-fun A23 () Bool)
(declare-fun A24 () Bool)
(assert (let ((.def_0 (not A10))) (let ((.def_1 (not A11))) (let ((.def_2 (and .def_1 .def_0))) (let ((.def_3 (not .def_2))) (let ((.def_4 (and A7 A9))) (let ((.def_5 (or .def_4 .def_3))) (let ((.def_6 (not A21))) (let ((.def_7 (or .def_6 A14))) (let ((.def_8 (= A23 A10))) (let ((.def_9 (and .def_8 .def_7))) (let ((.def_10 (or .def_9 .def_5))) (let ((.def_11 (not A3))) (let ((.def_12 (= .def_11 A1))) (let ((.def_13 (not .def_12))) (let ((.def_14 (not A14))) (let ((.def_15 (or A19 .def_14))) (let ((.def_16 (or .def_15 .def_13))) (let ((.def_17 (not A13))) (let ((.def_18 (and .def_17 .def_11))) (let ((.def_19 (not A22))) (let ((.def_20 (= .def_11 .def_19))) (let ((.def_21 (or .def_20 .def_18))) (let ((.def_22 (not .def_21))) (let ((.def_23 (and .def_22 .def_16))) (let ((.def_24 (not .def_23))) (let ((.def_25 (or .def_24 .def_10))) (let ((.def_26 (not A16))) (let ((.def_27 (= A19 .def_26))) (let ((.def_28 (not .def_27))) (let ((.def_29 (and A10 A13))) (let ((.def_30 (and .def_29 .def_28))) (let ((.def_31 (not .def_30))) (let ((.def_32 (and A12 A1))) (let ((.def_33 (not .def_32))) (let ((.def_34 (not A7))) (let ((.def_35 (and .def_34 .def_34))) (let ((.def_36 (not .def_35))) (let ((.def_37 (or .def_36 .def_33))) (let ((.def_38 (not .def_37))) (let ((.def_39 (and .def_38 .def_31))) (let ((.def_40 (not .def_39))) (let ((.def_41 (and A24 A4))) (let ((.def_42 (not .def_41))) (let ((.def_43 (and A5 A21))) (let ((.def_44 (and .def_43 .def_42))) (let ((.def_45 (not A19))) (let ((.def_46 (or .def_45 A9))) (let ((.def_47 (and A14 A7))) (let ((.def_48 (and .def_47 .def_46))) (let ((.def_49 (not .def_48))) (let ((.def_50 (= .def_49 .def_44))) (let ((.def_51 (not .def_50))) (let ((.def_52 (and .def_51 .def_40))) (let ((.def_53 (or .def_52 .def_25))) (let ((.def_54 (not .def_53))) (let ((.def_55 (and A4 .def_17))) (let ((.def_56 (not .def_55))) (let ((.def_57 (and A17 .def_11))) (let ((.def_58 (and .def_57 .def_56))) (let ((.def_59 (not .def_58))) (let ((.def_60 (and A21 .def_17))) (let ((.def_61 (not .def_60))) (let ((.def_62 (not A4))) (let ((.def_63 (not A18))) (let ((.def_64 (and .def_63 .def_62))) (let ((.def_65 (and .def_64 .def_61))) (let ((.def_66 (or .def_65 .def_59))) (let ((.def_67 (not .def_66))) (let ((.def_68 (or A21 .def_63))) (let ((.def_69 (not .def_68))) (let ((.def_70 (not A24))) (let ((.def_71 (= .def_70 A20))) (let ((.def_72 (not .def_71))) (let ((.def_73 (or .def_72 .def_69))) (let ((.def_74 (not A12))) (let ((.def_75 (and .def_6 .def_74))) (let ((.def_76 (not .def_75))) (let ((.def_77 (not A9))) (let ((.def_78 (not A5))) (let ((.def_79 (or .def_78 .def_77))) (let ((.def_80 (not .def_79))) (let ((.def_81 (= .def_80 .def_76))) (let ((.def_82 (and .def_81 .def_73))) (let ((.def_83 (not .def_82))) (let ((.def_84 (or .def_83 .def_67))) (let ((.def_85 (not .def_84))) (let ((.def_86 (not A17))) (let ((.def_87 (or .def_86 .def_17))) (let ((.def_88 (not .def_87))) (let ((.def_89 (and .def_78 .def_86))) (let ((.def_90 (not .def_89))) (let ((.def_91 (or .def_90 .def_88))) (let ((.def_92 (and A13 A19))) (let ((.def_93 (and A0 .def_74))) (let ((.def_94 (not .def_93))) (let ((.def_95 (or .def_94 .def_92))) (let ((.def_96 (or .def_95 .def_91))) (let ((.def_97 (not .def_96))) (let ((.def_98 (or .def_19 .def_34))) (let ((.def_99 (or A18 A0))) (let ((.def_100 (or .def_99 .def_98))) (let ((.def_101 (not .def_100))) (let ((.def_102 (not A15))) (let ((.def_103 (or A10 .def_102))) (let ((.def_104 (or A8 A21))) (let ((.def_105 (or .def_104 .def_103))) (let ((.def_106 (and .def_105 .def_101))) (let ((.def_107 (or .def_106 .def_97))) (let ((.def_108 (not .def_107))) (let ((.def_109 (and .def_108 .def_85))) (let ((.def_110 (not .def_109))) (let ((.def_111 (and .def_110 .def_54))) (let ((.def_112 (not .def_111))) (let ((.def_113 (not A8))) (let ((.def_114 (or .def_113 A1))) (let ((.def_115 (or A7 A11))) (let ((.def_116 (or .def_115 .def_114))) (let ((.def_117 (or A7 A18))) (let ((.def_118 (not .def_117))) (let ((.def_119 (= A10 A20))) (let ((.def_120 (not .def_119))) (let ((.def_121 (or .def_120 .def_118))) (let ((.def_122 (not .def_121))) (let ((.def_123 (or .def_122 .def_116))) (let ((.def_124 (= A9 A9))) (let ((.def_125 (not .def_124))) (let ((.def_126 (and A21 A23))) (let ((.def_127 (or .def_126 .def_125))) (let ((.def_128 (not .def_127))) (let ((.def_129 (or A0 .def_113))) (let ((.def_130 (not .def_129))) (let ((.def_131 (and .def_26 .def_102))) (let ((.def_132 (not .def_131))) (let ((.def_133 (= .def_132 .def_130))) (let ((.def_134 (or .def_133 .def_128))) (let ((.def_135 (not .def_134))) (let ((.def_136 (and .def_135 .def_123))) (let ((.def_137 (not .def_136))) (let ((.def_138 (and .def_62 A5))) (let ((.def_139 (not .def_138))) (let ((.def_140 (not A20))) (let ((.def_141 (or A14 .def_140))) (let ((.def_142 (not .def_141))) (let ((.def_143 (or .def_142 .def_139))) (let ((.def_144 (not .def_143))) (let ((.def_145 (and A21 A14))) (let ((.def_146 (and .def_17 A21))) (let ((.def_147 (and .def_146 .def_145))) (let ((.def_148 (not .def_147))) (let ((.def_149 (and .def_148 .def_144))) (let ((.def_150 (and A1 A23))) (let ((.def_151 (not .def_150))) (let ((.def_152 (not A2))) (let ((.def_153 (and .def_152 A2))) (let ((.def_154 (or .def_153 .def_151))) (let ((.def_155 (not .def_154))) (let ((.def_156 (or A14 A20))) (let ((.def_157 (not .def_156))) (let ((.def_158 (and .def_152 .def_70))) (let ((.def_159 (not .def_158))) (let ((.def_160 (or .def_159 .def_157))) (let ((.def_161 (or .def_160 .def_155))) (let ((.def_162 (or .def_161 .def_149))) (let ((.def_163 (not .def_162))) (let ((.def_164 (or .def_163 .def_137))) (let ((.def_165 (and A7 A3))) (let ((.def_166 (not A1))) (let ((.def_167 (or A2 .def_166))) (let ((.def_168 (not .def_167))) (let ((.def_169 (and .def_168 .def_165))) (let ((.def_170 (not .def_169))) (let ((.def_171 (or .def_140 A16))) (let ((.def_172 (not .def_171))) (let ((.def_173 (and A17 A3))) (let ((.def_174 (or .def_173 .def_172))) (let ((.def_175 (not .def_174))) (let ((.def_176 (or .def_175 .def_170))) (let ((.def_177 (not .def_176))) (let ((.def_178 (not A6))) (let ((.def_179 (and .def_102 .def_178))) (let ((.def_180 (or .def_77 A23))) (let ((.def_181 (not .def_180))) (let ((.def_182 (or .def_181 .def_179))) (let ((.def_183 (not A0))) (let ((.def_184 (or .def_6 .def_183))) (let ((.def_185 (not .def_184))) (let ((.def_186 (or .def_178 .def_11))) (let ((.def_187 (not .def_186))) (let ((.def_188 (and .def_187 .def_185))) (let ((.def_189 (not .def_188))) (let ((.def_190 (and .def_189 .def_182))) (let ((.def_191 (not .def_190))) (let ((.def_192 (and .def_191 .def_177))) (let ((.def_193 (and .def_14 .def_183))) (let ((.def_194 (or .def_63 .def_183))) (let ((.def_195 (and .def_194 .def_193))) (let ((.def_196 (not .def_195))) (let ((.def_197 (and A16 A22))) (let ((.def_198 (and .def_152 A16))) (let ((.def_199 (or .def_198 .def_197))) (let ((.def_200 (and .def_199 .def_196))) (let ((.def_201 (not .def_200))) (let ((.def_202 (or A5 .def_6))) (let ((.def_203 (not .def_202))) (let ((.def_204 (or A13 A21))) (let ((.def_205 (not .def_204))) (let ((.def_206 (or .def_205 .def_203))) (let ((.def_207 (not .def_206))) (let ((.def_208 (or A19 A16))) (let ((.def_209 (and .def_152 .def_140))) (let ((.def_210 (not .def_209))) (let ((.def_211 (and .def_210 .def_208))) (let ((.def_212 (not .def_211))) (let ((.def_213 (or .def_212 .def_207))) (let ((.def_214 (or .def_213 .def_201))) (let ((.def_215 (not .def_214))) (let ((.def_216 (or .def_215 .def_192))) (let ((.def_217 (or .def_216 .def_164))) (let ((.def_218 (not .def_217))) (let ((.def_219 (= .def_218 .def_112))) (let ((.def_220 (not .def_219))) (let ((.def_221 (or A6 .def_86))) (let ((.def_222 (not .def_221))) (let ((.def_223 (and A4 A1))) (let ((.def_224 (not .def_223))) (let ((.def_225 (or .def_224 .def_222))) (let ((.def_226 (not .def_225))) (let ((.def_227 (or A20 A4))) (let ((.def_228 (or A8 .def_0))) (let ((.def_229 (or .def_228 .def_227))) (let ((.def_230 (or .def_229 .def_226))) (let ((.def_231 (not .def_230))) (let ((.def_232 (and A9 .def_14))) (let ((.def_233 (and A15 A14))) (let ((.def_234 (= .def_233 .def_232))) (let ((.def_235 (and A11 A13))) (let ((.def_236 (not .def_235))) (let ((.def_237 (or A7 A20))) (let ((.def_238 (not .def_237))) (let ((.def_239 (= .def_238 .def_236))) (let ((.def_240 (and .def_239 .def_234))) (let ((.def_241 (or .def_240 .def_231))) (let ((.def_242 (not .def_241))) (let ((.def_243 (and A14 A12))) (let ((.def_244 (and .def_45 .def_77))) (let ((.def_245 (or .def_244 .def_243))) (let ((.def_246 (not .def_245))) (let ((.def_247 (and .def_62 .def_78))) (let ((.def_248 (not .def_247))) (let ((.def_249 (and A2 .def_152))) (let ((.def_250 (not .def_249))) (let ((.def_251 (and .def_250 .def_248))) (let ((.def_252 (not .def_251))) (let ((.def_253 (and .def_252 .def_246))) (let ((.def_254 (or .def_26 A18))) (let ((.def_255 (not .def_254))) (let ((.def_256 (and A12 .def_140))) (let ((.def_257 (not .def_256))) (let ((.def_258 (and .def_257 .def_255))) (let ((.def_259 (or A1 .def_70))) (let ((.def_260 (or A7 .def_63))) (let ((.def_261 (not .def_260))) (let ((.def_262 (or .def_261 .def_259))) (let ((.def_263 (or .def_262 .def_258))) (let ((.def_264 (or .def_263 .def_253))) (let ((.def_265 (and .def_264 .def_242))) (let ((.def_266 (not .def_265))) (let ((.def_267 (or A24 A10))) (let ((.def_268 (= .def_45 .def_140))) (let ((.def_269 (= .def_268 .def_267))) (let ((.def_270 (or A9 A13))) (let ((.def_271 (or .def_178 .def_78))) (let ((.def_272 (not .def_271))) (let ((.def_273 (= .def_272 .def_270))) (let ((.def_274 (and .def_273 .def_269))) (let ((.def_275 (not .def_274))) (let ((.def_276 (or .def_63 A10))) (let ((.def_277 (and A4 A14))) (let ((.def_278 (and .def_277 .def_276))) (let ((.def_279 (not .def_278))) (let ((.def_280 (and A7 .def_152))) (let ((.def_281 (not .def_280))) (let ((.def_282 (or A17 A10))) (let ((.def_283 (= .def_282 .def_281))) (let ((.def_284 (and .def_283 .def_279))) (let ((.def_285 (not .def_284))) (let ((.def_286 (or .def_285 .def_275))) (let ((.def_287 (not .def_286))) (let ((.def_288 (or .def_74 A13))) (let ((.def_289 (and .def_0 A23))) (let ((.def_290 (or .def_289 .def_288))) (let ((.def_291 (not .def_290))) (let ((.def_292 (and .def_1 .def_14))) (let ((.def_293 (not .def_292))) (let ((.def_294 (or .def_86 .def_166))) (let ((.def_295 (or .def_294 .def_293))) (let ((.def_296 (not .def_295))) (let ((.def_297 (or .def_296 .def_291))) (let ((.def_298 (not .def_297))) (let ((.def_299 (and .def_62 .def_45))) (let ((.def_300 (or A12 .def_1))) (let ((.def_301 (not .def_300))) (let ((.def_302 (or .def_301 .def_299))) (let ((.def_303 (not .def_302))) (let ((.def_304 (or A18 .def_45))) (let ((.def_305 (not .def_304))) (let ((.def_306 (or A3 A9))) (let ((.def_307 (not .def_306))) (let ((.def_308 (and .def_307 .def_305))) (let ((.def_309 (and .def_308 .def_303))) (let ((.def_310 (or .def_309 .def_298))) (let ((.def_311 (or .def_310 .def_287))) (let ((.def_312 (and .def_311 .def_266))) (let ((.def_313 (not .def_312))) (let ((.def_314 (and A22 .def_34))) (let ((.def_315 (not .def_314))) (let ((.def_316 (or .def_17 A13))) (let ((.def_317 (or .def_316 .def_315))) (let ((.def_318 (not .def_317))) (let ((.def_319 (and .def_19 .def_178))) (let ((.def_320 (and .def_17 A19))) (let ((.def_321 (not .def_320))) (let ((.def_322 (or .def_321 .def_319))) (let ((.def_323 (and .def_322 .def_318))) (let ((.def_324 (not .def_323))) (let ((.def_325 (or .def_78 .def_63))) (let ((.def_326 (not .def_325))) (let ((.def_327 (or .def_102 .def_86))) (let ((.def_328 (or .def_327 .def_326))) (let ((.def_329 (and A1 .def_113))) (let ((.def_330 (not .def_329))) (let ((.def_331 (or .def_77 A2))) (let ((.def_332 (and .def_331 .def_330))) (let ((.def_333 (and .def_332 .def_328))) (let ((.def_334 (and .def_333 .def_324))) (let ((.def_335 (not .def_334))) (let ((.def_336 (or .def_34 .def_86))) (let ((.def_337 (or A24 .def_74))) (let ((.def_338 (or .def_337 .def_336))) (let ((.def_339 (or .def_183 A0))) (let ((.def_340 (not .def_339))) (let ((.def_341 (and .def_70 .def_14))) (let ((.def_342 (or .def_341 .def_340))) (let ((.def_343 (and .def_342 .def_338))) (let ((.def_344 (or A12 A4))) (let ((.def_345 (not .def_344))) (let ((.def_346 (not A23))) (let ((.def_347 (and .def_346 .def_86))) (let ((.def_348 (not .def_347))) (let ((.def_349 (or .def_348 .def_345))) (let ((.def_350 (and A10 .def_34))) (let ((.def_351 (not .def_350))) (let ((.def_352 (or A23 .def_113))) (let ((.def_353 (and .def_352 .def_351))) (let ((.def_354 (not .def_353))) (let ((.def_355 (and .def_354 .def_349))) (let ((.def_356 (or .def_355 .def_343))) (let ((.def_357 (not .def_356))) (let ((.def_358 (or .def_357 .def_335))) (let ((.def_359 (and A3 .def_19))) (let ((.def_360 (and .def_78 .def_19))) (let ((.def_361 (or .def_360 .def_359))) (let ((.def_362 (and A13 .def_86))) (let ((.def_363 (and .def_78 .def_78))) (let ((.def_364 (or .def_363 .def_362))) (let ((.def_365 (not .def_364))) (let ((.def_366 (or .def_365 .def_361))) (let ((.def_367 (not .def_366))) (let ((.def_368 (or A2 .def_70))) (let ((.def_369 (and .def_74 A2))) (let ((.def_370 (not .def_369))) (let ((.def_371 (or .def_370 .def_368))) (let ((.def_372 (not .def_371))) (let ((.def_373 (or A12 .def_74))) (let ((.def_374 (not .def_373))) (let ((.def_375 (or A16 .def_86))) (let ((.def_376 (or .def_375 .def_374))) (let ((.def_377 (or .def_376 .def_372))) (let ((.def_378 (= .def_377 .def_367))) (let ((.def_379 (and A2 .def_140))) (let ((.def_380 (or .def_26 A15))) (let ((.def_381 (= .def_380 .def_379))) (let ((.def_382 (not .def_381))) (let ((.def_383 (or .def_11 .def_70))) (let ((.def_384 (not .def_383))) (let ((.def_385 (and .def_384 .def_55))) (let ((.def_386 (not .def_385))) (let ((.def_387 (and .def_386 .def_382))) (let ((.def_388 (or .def_34 A16))) (let ((.def_389 (not .def_388))) (let ((.def_390 (and .def_183 A14))) (let ((.def_391 (or .def_390 .def_389))) (let ((.def_392 (not .def_391))) (let ((.def_393 (or A0 A24))) (let ((.def_394 (not .def_393))) (let ((.def_395 (and .def_86 A13))) (let ((.def_396 (or .def_395 .def_394))) (let ((.def_397 (and .def_396 .def_392))) (let ((.def_398 (not .def_397))) (let ((.def_399 (and .def_398 .def_387))) (let ((.def_400 (and .def_399 .def_378))) (let ((.def_401 (not .def_400))) (let ((.def_402 (= .def_401 .def_358))) (let ((.def_403 (not .def_402))) (let ((.def_404 (and .def_403 .def_313))) (let ((.def_405 (not .def_404))) (let ((.def_406 (and .def_405 .def_220))) (let ((.def_407 (not .def_406))) .def_407)))))))))))))))))))))))))))))))))))))))))))))))))))))))))))))))))))))))))))))))))))))))))))))))))))))))))))))))))))))))))))))))))))))))))))))))))))))))))))))))))))))))))))))))))))))))))))))))))))))))))))))))))))))))))))))))))))))))))))))))))))))))))))))))))))))))))))))))))))))))))))))))))))))))))))))))))))))))))))))))))))))))))))))))))))))))))))))))))))))))))))))))))))))))))))))))))))))))))))))))))))))))))
(check-sat)
